1 1 1 0 0 1 1 1 
0 32 17 30 20 5 10 46 
32 0 24 34 40 29 35 12 
17 24 0 41 14 9 18 7 
30 34 41 0 41 19 41 36 
20 40 14 41 0 38 18 41 
5 29 9 19 38 0 14 19 
10 35 18 41 18 14 0 31 
46 12 7 36 41 19 31 0 
8 3
1P 6P 4B 2P 8P 3P 5B 7P = 119